p cnf 56 172
a 41 43 0
e 1 2 3 4 5 6 7 8 9 10 11 12 13 14 15 16 17 18 19 20 21 22 23 24 25 26 27 28 29 30 31 32 33 34 35 36 37 38 39 40 42 44 45 46 47 48 49 50 51 52 53 54 55 56 0
4 2 0
4 -3 0
-2 3 -4 0
5 1 0
5 -4 0
-1 4 -5 0
7 -5 0
7 6 0
5 -6 -7 0
4 -3 -8 0
-4 3 -8 0
4 3 8 0
-4 -3 8 0
5 -9 -10 0
-5 9 -10 0
5 9 10 0
-5 -9 10 0
11 -6 0
11 -2 0
6 2 -11 0
-12 -10 0
-12 11 0
10 -11 12 0
8 -12 -13 0
-8 12 -13 0
8 12 13 0
-8 -12 13 0
-15 14 0
-15 3 0
-14 -3 15 0
-1 4 -16 0
1 -4 -16 0
-1 -4 16 0
1 4 16 0
15 -16 -17 0
-15 16 -17 0
15 16 17 0
-15 -16 17 0
-5 4 -18 0
5 -4 -18 0
-5 -4 18 0
5 4 18 0
-19 17 0
-19 18 0
-17 -18 19 0
-20 11 0
-20 19 0
-11 -19 20 0
-17 -21 -22 0
17 21 -22 0
-17 21 22 0
17 -21 22 0
4 23 -24 0
-4 -23 -24 0
4 -23 24 0
-4 23 24 0
25 22 0
25 -24 0
-22 24 -25 0
-27 26 0
-27 -9 0
-26 9 27 0
-29 27 0
-29 28 0
-27 -28 29 0
-25 29 -30 0
25 -29 -30 0
-25 -29 30 0
25 29 30 0
-31 -20 0
-31 30 0
20 -30 31 0
32 -14 0
32 5 0
14 -5 -32 0
32 -18 -33 0
-32 18 -33 0
32 18 33 0
-32 -18 33 0
-31 33 -34 0
31 -33 -34 0
-31 -33 34 0
31 33 34 0
13 34 -35 0
-13 -34 -35 0
13 -34 35 0
-13 34 35 0
17 -9 -36 0
-17 9 -36 0
17 9 36 0
-17 -9 36 0
-35 -36 -37 0
35 36 -37 0
-35 36 37 0
35 -36 37 0
38 -7 0
38 -37 0
7 37 -38 0
39 -18 0
39 -3 0
18 3 -39 0
40 23 0
40 -2 0
-23 2 -40 0
10 -4 -41 0
-10 4 -41 0
10 4 41 0
-10 -4 41 0
-42 40 0
-42 -41 0
-40 41 42 0
43 -1 0
43 -18 0
1 18 -43 0
44 26 0
44 -27 0
-26 27 -44 0
45 43 0
45 -44 0
-43 44 -45 0
16 21 -46 0
-16 -21 -46 0
16 -21 46 0
-16 21 46 0
47 -3 0
47 -46 0
3 46 -47 0
-48 47 0
-48 -11 0
-47 11 48 0
49 -45 0
49 48 0
45 -48 -49 0
-50 19 0
-50 -5 0
-19 5 50 0
-51 -49 0
-51 -50 0
49 50 51 0
52 -23 0
52 26 0
23 -26 -52 0
-51 -52 -53 0
51 52 -53 0
-51 52 53 0
51 -52 53 0
54 -42 0
54 53 0
42 -53 -54 0
55 -39 0
55 54 0
39 -54 -55 0
-56 38 0
-56 55 0
-38 -55 56 0
15 -41 14 0
55 -44 -21 12 -23 0
3 52 -18 13 0
9 -14 48 -27 -24 -32 22 0
-53 -40 -22 -17 -43 46 47 0
-3 31 41 0
18 11 20 0
30 -55 -17 13 0
28 -48 -41 6 -45 -36 0
44 -27 32 18 -53 41 0
28 -31 4 6 0
5 -2 -48 -25 0
51 41 -49 -30 0
17 20 35 39 0
31 18 35 10 53 -42 -11 30 0
13 -6 27 36 -29 0
56 0
